# Solution for model F-JSSP-SDST
# Objective value = 10256
B0(15) 0
B1(27) 0
B2(41) 1
B3(30) 0
B4(29) 0
B5(34) 1
B6(30) 1
B7(49) 0
B8(34) 0
B9(32) 0
B10(23) 1
B11(14) 1
B12(38) 0
B13(38) 0
B14(27) 1
B15(46) 0
B16(36) 0
B17(36) 1
B18(45) 1
B19(22) 0
B20(14) 0
B21(28) 1
B22(37) 1
B23(41) 0
B24(29) 0
B25(30) 0
B26(49) 1
B27(35) 0
B28(34) 0
B29(23) 1
B30(13) 1
B31(27) 0
B32(39) 0
B33(45) 1
B34(30) 1
B35(34) 0
B36(44) 0
B37(33) 1
B38(25) 0
B39(39) 0
B40(13) 1
B41(36) 0
B42(30) 0
B43(46) 1
B44(47) 0
B45(34) 1
B46(26) 0
B47(22) 1
B48(33) 0
B49(30) 1
B50(40) 0
B51(28) 0
B52(28) 0
B53(40) 1
B54(47) 0
B55(48) 1
B56(37) 0
B57(35) 0
B58(25) 0
B59(34) 1
B60(38) 1
B61(28) 0
B62(39) 1
B63(44) 0
B64(45) 0
B65(36) 1
B66(36) 0
B67(22) 0
B68(43) 1
B69(30) 1
B70(40) 0
B71(36) 1
B72(48) 0
B73(48) 0
B74(36) 1
B75(35) 0
B76(34) 1
B77(23) 0
B78(28) 1
B79(38) 0
B80(38) 0
B81(29) 1
B82(47) 0
B83(35) 1
B84(34) 0
B85(22) 1
B86(30) 0
B87(40) 1
B88(36) 1
B89(48) 0
B90(48) 1
B91(36) 0
B92(35) 0
B93(34) 1
B94(23) 0
B95(28) 1
B96(38) 0
B97(38) 0
B98(29) 1
B99(47) 0
B100(35) 1
B101(34) 0
B102(22) 1
B103(38) 0
B104(28) 1
B105(39) 1
B106(44) 0
B107(45) 1
B108(36) 0
B109(36) 0
B110(22) 1
B111(43) 0
B112(0) 0
B113(0) 0
B114(0) 0
B115(0) 0
B116(4) 0
B117(4) 0
B118(0) 0
B119(0) 0
B120(4) 0
B121(2) 0
B122(0) 0
B123(0) 0
B124(4) 0
B125(2) 0
B126(0) 0
B127(0) 0
B128(6) 1
B129(0) 0
B130(2) 0
B131(0) 0
B132(4) 0
B133(2) 0
B134(0) 0
B135(0) 0
B136(4) 0
B137(2) 0
B138(0) 0
B139(0) 0
B140(2) 0
B141(0) 0
B142(0) 0
B143(0) 0
B144(4) 0
B145(2) 0
B146(0) 0
B147(0) 0
B148(2) 0
B149(0) 0
B150(0) 0
B151(0) 0
B152(4) 0
B153(2) 0
B154(0) 0
B155(0) 0
B156(4) 0
B157(2) 0
B158(0) 0
B159(0) 0
B160(0) 0
B161(0) 0
B162(0) 0
B163(0) 0
B164(0) 0
B165(2) 0
B166(2) 0
B167(0) 0
B168(2) 1
B169(4) 0
B170(2) 0
B171(0) 0
B172(2) 1
B173(0) 0
B174(2) 0
B175(0) 0
B176(2) 0
B177(4) 0
B178(2) 0
B179(0) 0
B180(4) 1
B181(2) 0
B182(2) 0
B183(4) 0
B184(2) 0
B185(0) 0
B186(2) 0
B187(0) 0
B188(2) 1
B189(0) 0
B190(2) 0
B191(2) 0
B192(2) 1
B193(2) 0
B194(2) 0
B195(0) 0
B196(2) 0
B197(0) 0
B198(2) 0
B199(2) 0
B200(2) 1
B201(2) 1
B202(2) 0
B203(0) 0
B204(2) 1
B205(0) 0
B206(2) 0
B207(0) 0
B208(0) 0
B209(0) 0
B210(0) 0
B211(0) 0
B212(0) 0
B213(0) 0
B214(4) 1
B215(2) 0
B216(0) 0
B217(4) 0
B218(4) 0
B219(0) 0
B220(0) 0
B221(2) 0
B222(2) 0
B223(2) 0
B224(0) 0
B225(6) 0
B226(2) 0
B227(0) 0
B228(2) 0
B229(4) 0
B230(4) 0
B231(4) 1
B232(0) 0
B233(2) 0
B234(4) 0
B235(2) 0
B236(2) 1
B237(2) 0
B238(4) 1
B239(2) 0
B240(0) 0
B241(2) 0
B242(4) 0
B243(0) 0
B244(2) 0
B245(2) 0
B246(4) 0
B247(2) 0
B248(0) 0
B249(2) 0
B250(4) 0
B251(0) 0
B252(0) 0
B253(2) 0
B254(4) 0
B255(2) 0
B256(0) 0
B257(0) 0
B258(0) 0
B259(0) 0
B260(0) 0
B261(0) 0
B262(2) 0
B263(2) 1
B264(0) 0
B265(2) 0
B266(0) 0
B267(2) 0
B268(0) 0
B269(0) 0
B270(0) 0
B271(0) 0
B272(0) 0
B273(2) 0
B274(0) 0
B275(2) 1
B276(0) 0
B277(0) 0
B278(2) 0
B279(2) 0
B280(0) 0
B281(0) 0
B282(2) 0
B283(2) 0
B284(0) 0
B285(0) 0
B286(2) 0
B287(4) 0
B288(0) 0
B289(0) 0
B290(2) 0
B291(2) 0
B292(0) 0
B293(0) 0
B294(2) 0
B295(4) 0
B296(0) 0
B297(0) 0
B298(2) 0
B299(2) 0
B300(0) 0
B301(0) 0
B302(2) 0
B303(2) 0
B304(0) 0
B305(0) 0
B306(0) 0
B307(0) 0
B308(0) 0
B309(0) 0
B310(0) 0
B311(0) 0
B312(2) 0
B313(2) 0
B314(0) 0
B315(0) 0
B316(2) 0
B317(2) 0
B318(0) 0
B319(0) 0
B320(4) 1
B321(0) 0
B322(0) 0
B323(0) 0
B324(2) 0
B325(2) 1
B326(0) 0
B327(0) 0
B328(2) 1
B329(2) 0
B330(0) 0
B331(0) 0
B332(2) 0
B333(0) 0
B334(0) 0
B335(0) 0
B336(2) 0
B337(2) 0
B338(0) 0
B339(0) 0
B340(2) 0
B341(0) 0
B342(0) 0
B343(0) 0
B344(2) 0
B345(2) 0
B346(0) 0
B347(0) 0
B348(2) 0
B349(2) 0
B350(0) 0
B351(0) 0
B352(0) 0
B353(0) 0
B354(0) 0
B355(0) 0
B356(0) 0
B357(0) 0
B358(0) 0
B359(0) 0
B360(2) 1
B361(2) 0
B362(0) 0
B363(0) 0
B364(2) 1
B365(2) 0
B366(0) 0
B367(0) 0
B368(4) 0
B369(0) 0
B370(2) 0
B371(0) 0
B372(4) 1
B373(2) 0
B374(0) 0
B375(0) 0
B376(4) 0
B377(2) 0
B378(0) 0
B379(0) 0
B380(2) 0
B381(0) 0
B382(0) 0
B383(0) 0
B384(4) 0
B385(2) 0
B386(0) 0
B387(0) 0
B388(2) 0
B389(0) 0
B390(0) 0
B391(0) 0
B392(4) 1
B393(2) 0
B394(0) 0
B395(0) 0
B396(4) 0
B397(2) 0
B398(0) 0
B399(0) 0
B400(0) 0
B401(0) 0
B402(0) 0
B403(0) 0
B404(0) 0
B405(0) 0
B406(0) 0
B407(0) 0
B408(0) 0
B409(2) 1
B410(4) 0
B411(2) 0
B412(0) 0
B413(2) 0
B414(2) 0
B415(4) 0
B416(0) 0
B417(4) 0
B418(4) 0
B419(2) 0
B420(0) 0
B421(2) 0
B422(6) 1
B423(2) 1
B424(0) 0
B425(2) 0
B426(6) 0
B427(2) 0
B428(0) 0
B429(4) 0
B430(6) 0
B431(2) 0
B432(0) 0
B433(0) 0
B434(4) 0
B435(2) 0
B436(0) 0
B437(4) 0
B438(6) 0
B439(2) 0
B440(0) 0
B441(0) 0
B442(4) 0
B443(2) 0
B444(0) 0
B445(2) 0
B446(6) 0
B447(2) 0
B448(0) 0
B449(0) 0
B450(0) 0
B451(0) 0
B452(0) 0
B453(0) 0
B454(0) 0
B455(0) 0
B456(0) 0
B457(0) 0
B458(2) 1
B459(2) 0
B460(0) 0
B461(2) 1
B462(0) 0
B463(2) 0
B464(0) 0
B465(2) 1
B466(2) 0
B467(2) 0
B468(0) 0
B469(2) 0
B470(2) 1
B471(0) 0
B472(0) 0
B473(2) 0
B474(2) 0
B475(4) 0
B476(0) 0
B477(2) 1
B478(2) 1
B479(2) 0
B480(0) 0
B481(0) 0
B482(2) 0
B483(2) 0
B484(0) 0
B485(2) 0
B486(2) 0
B487(2) 0
B488(0) 0
B489(0) 0
B490(2) 1
B491(2) 0
B492(0) 0
B493(2) 0
B494(2) 0
B495(4) 0
B496(0) 0
B497(0) 0
B498(0) 0
B499(0) 0
B500(0) 0
B501(0) 0
B502(0) 0
B503(0) 0
B504(0) 0
B505(0) 0
B506(0) 0
B507(0) 0
B508(4) 1
B509(0) 0
B510(0) 0
B511(0) 0
B512(4) 1
B513(0) 0
B514(2) 0
B515(0) 0
B516(2) 1
B517(0) 0
B518(0) 0
B519(0) 0
B520(2) 0
B521(0) 0
B522(0) 0
B523(0) 0
B524(0) 0
B525(0) 0
B526(0) 0
B527(0) 0
B528(2) 0
B529(0) 0
B530(0) 0
B531(0) 0
B532(0) 0
B533(0) 0
B534(0) 0
B535(0) 0
B536(2) 0
B537(0) 0
B538(0) 0
B539(0) 0
B540(2) 0
B541(0) 0
B542(0) 0
B543(0) 0
B544(0) 0
B545(0) 0
B546(0) 0
B547(0) 0
B548(0) 0
B549(0) 0
B550(0) 0
B551(0) 0
B552(0) 0
B553(0) 0
B554(0) 0
B555(0) 0
B556(0) 0
B557(2) 0
B558(2) 1
B559(0) 0
B560(2) 0
B561(4) 0
B562(0) 0
B563(0) 0
B564(4) 0
B565(4) 0
B566(2) 0
B567(4) 0
B568(2) 0
B569(2) 0
B570(2) 0
B571(0) 0
B572(4) 0
B573(0) 0
B574(2) 0
B575(2) 0
B576(2) 0
B577(4) 0
B578(2) 0
B579(0) 0
B580(4) 1
B581(0) 0
B582(2) 0
B583(2) 0
B584(2) 0
B585(4) 1
B586(2) 0
B587(0) 0
B588(2) 0
B589(2) 0
B590(2) 0
B591(0) 0
B592(0) 0
B593(0) 0
B594(0) 0
B595(0) 0
B596(0) 0
B597(0) 0
B598(0) 0
B599(0) 0
B600(0) 0
B601(0) 0
B602(0) 0
B603(0) 0
B604(0) 0
B605(2) 0
B606(4) 0
B607(4) 0
B608(0) 0
B609(4) 1
B610(4) 1
B611(2) 0
B612(2) 0
B613(4) 0
B614(4) 1
B615(2) 0
B616(0) 0
B617(2) 0
B618(4) 0
B619(2) 0
B620(2) 1
B621(4) 1
B622(4) 0
B623(0) 0
B624(0) 0
B625(2) 0
B626(2) 0
B627(2) 0
B628(2) 1
B629(4) 1
B630(4) 0
B631(0) 0
B632(0) 0
B633(2) 0
B634(2) 0
B635(2) 0
B636(0) 0
B637(2) 0
B638(4) 0
B639(2) 0
B640(0) 0
B641(0) 0
B642(0) 0
B643(0) 0
B644(0) 0
B645(0) 0
B646(0) 0
B647(0) 0
B648(0) 0
B649(0) 0
B650(0) 0
B651(0) 0
B652(0) 0
B653(0) 0
B654(2) 0
B655(2) 0
B656(0) 0
B657(0) 0
B658(2) 0
B659(4) 1
B660(0) 0
B661(0) 0
B662(2) 0
B663(0) 0
B664(0) 0
B665(0) 0
B666(2) 0
B667(2) 0
B668(0) 0
B669(2) 0
B670(2) 0
B671(2) 0
B672(0) 0
B673(0) 0
B674(0) 0
B675(4) 0
B676(0) 0
B677(2) 0
B678(2) 0
B679(2) 0
B680(0) 0
B681(0) 0
B682(0) 0
B683(4) 0
B684(0) 0
B685(0) 0
B686(2) 0
B687(2) 0
B688(0) 0
B689(0) 0
B690(0) 0
B691(0) 0
B692(0) 0
B693(0) 0
B694(0) 0
B695(0) 0
B696(0) 0
B697(0) 0
B698(0) 0
B699(0) 0
B700(0) 0
B701(0) 0
B702(0) 0
B703(0) 0
B704(4) 1
B705(0) 0
B706(2) 0
B707(0) 0
B708(2) 0
B709(0) 0
B710(0) 0
B711(0) 0
B712(2) 0
B713(0) 0
B714(0) 0
B715(0) 0
B716(0) 0
B717(0) 0
B718(0) 0
B719(0) 0
B720(2) 0
B721(0) 0
B722(0) 0
B723(0) 0
B724(0) 0
B725(0) 0
B726(0) 0
B727(0) 0
B728(2) 0
B729(0) 0
B730(0) 0
B731(0) 0
B732(2) 0
B733(0) 0
B734(0) 0
B735(0) 0
B736(0) 0
B737(0) 0
B738(0) 0
B739(0) 0
B740(0) 0
B741(0) 0
B742(0) 0
B743(0) 0
B744(0) 0
B745(0) 0
B746(0) 0
B747(0) 0
B748(0) 0
B749(0) 0
B750(0) 0
B751(0) 0
B752(2) 0
B753(2) 1
B754(2) 0
B755(0) 0
B756(2) 0
B757(4) 0
B758(2) 1
B759(0) 0
B760(2) 0
B761(4) 0
B762(2) 0
B763(2) 0
B764(2) 0
B765(2) 0
B766(2) 0
B767(0) 0
B768(2) 0
B769(2) 0
B770(2) 0
B771(0) 0
B772(2) 0
B773(2) 0
B774(2) 0
B775(0) 0
B776(2) 0
B777(2) 0
B778(2) 0
B779(0) 0
B780(2) 0
B781(4) 0
B782(2) 0
B783(2) 0
B784(0) 0
B785(0) 0
B786(0) 0
B787(0) 0
B788(0) 0
B789(0) 0
B790(0) 0
B791(0) 0
B792(0) 0
B793(0) 0
B794(0) 0
B795(0) 0
B796(0) 0
B797(0) 0
B798(0) 0
B799(0) 0
B800(0) 0
B801(2) 0
B802(2) 1
B803(2) 0
B804(2) 0
B805(2) 0
B806(2) 0
B807(2) 0
B808(0) 0
B809(0) 0
B810(2) 0
B811(0) 0
B812(2) 1
B813(2) 1
B814(2) 1
B815(0) 0
B816(0) 0
B817(2) 1
B818(0) 0
B819(2) 0
B820(2) 1
B821(2) 0
B822(2) 0
B823(0) 0
B824(0) 0
B825(2) 1
B826(0) 0
B827(2) 1
B828(0) 0
B829(0) 0
B830(2) 0
B831(0) 0
B832(0) 0
B833(0) 0
B834(0) 0
B835(0) 0
B836(0) 0
B837(0) 0
B838(0) 0
B839(0) 0
B840(0) 0
B841(0) 0
B842(0) 0
B843(0) 0
B844(0) 0
B845(0) 0
B846(0) 0
B847(0) 0
B848(0) 0
B849(2) 1
B850(4) 1
B851(2) 0
B852(0) 0
B853(2) 0
B854(4) 0
B855(0) 0
B856(0) 0
B857(2) 0
B858(4) 1
B859(2) 1
B860(0) 0
B861(4) 1
B862(4) 1
B863(0) 0
B864(0) 0
B865(0) 0
B866(2) 0
B867(2) 0
B868(0) 0
B869(4) 1
B870(4) 0
B871(0) 0
B872(0) 0
B873(0) 0
B874(2) 0
B875(2) 1
B876(0) 0
B877(2) 0
B878(4) 0
B879(2) 0
B880(0) 0
B881(0) 0
B882(0) 0
B883(0) 0
B884(0) 0
B885(0) 0
B886(0) 0
B887(0) 0
B888(0) 0
B889(0) 0
B890(0) 0
B891(0) 0
B892(0) 0
B893(0) 0
B894(0) 0
B895(0) 0
B896(0) 0
B897(0) 0
B898(0) 0
B899(0) 0
B900(4) 0
B901(2) 0
B902(0) 0
B903(0) 0
B904(4) 0
B905(2) 0
B906(0) 0
B907(0) 0
B908(2) 0
B909(0) 0
B910(0) 0
B911(0) 0
B912(4) 0
B913(2) 0
B914(0) 0
B915(0) 0
B916(2) 0
B917(0) 0
B918(0) 0
B919(0) 0
B920(4) 0
B921(2) 0
B922(0) 0
B923(0) 0
B924(4) 0
B925(2) 0
B926(0) 0
B927(0) 0
B928(0) 0
B929(0) 0
B930(0) 0
B931(0) 0
B932(0) 0
B933(0) 0
B934(0) 0
B935(0) 0
B936(0) 0
B937(0) 0
B938(0) 0
B939(0) 0
B940(0) 0
B941(0) 0
B942(0) 0
B943(0) 0
B944(0) 0
B945(0) 0
B946(0) 0
B947(0) 0
B948(2) 0
B949(4) 0
B950(4) 0
B951(4) 0
B952(0) 0
B953(2) 0
B954(4) 1
B955(2) 0
B956(2) 0
B957(2) 0
B958(4) 0
B959(2) 0
B960(0) 0
B961(2) 0
B962(4) 0
B963(0) 0
B964(2) 0
B965(2) 0
B966(4) 0
B967(2) 0
B968(0) 0
B969(2) 0
B970(4) 0
B971(0) 0
B972(0) 0
B973(2) 0
B974(4) 0
B975(2) 0
B976(0) 0
B977(0) 0
B978(0) 0
B979(0) 0
B980(0) 0
B981(0) 0
B982(0) 0
B983(0) 0
B984(0) 0
B985(0) 0
B986(0) 0
B987(0) 0
B988(0) 0
B989(0) 0
B990(0) 0
B991(0) 0
B992(0) 0
B993(0) 0
B994(0) 0
B995(0) 0
B996(2) 0
B997(2) 0
B998(4) 0
B999(0) 0
B1000(2) 0
B1001(2) 0
B1002(4) 0
B1003(2) 0
B1004(0) 0
B1005(4) 0
B1006(4) 0
B1007(0) 0
B1008(2) 0
B1009(0) 0
B1010(2) 0
B1011(2) 0
B1012(0) 0
B1013(4) 0
B1014(4) 0
B1015(0) 0
B1016(2) 0
B1017(0) 0
B1018(2) 0
B1019(2) 0
B1020(2) 0
B1021(2) 0
B1022(4) 0
B1023(2) 0
B1024(0) 0
B1025(0) 0
B1026(0) 0
B1027(0) 0
B1028(0) 0
B1029(0) 0
B1030(0) 0
B1031(0) 0
B1032(0) 0
B1033(0) 0
B1034(0) 0
B1035(0) 0
B1036(0) 0
B1037(0) 0
B1038(0) 0
B1039(0) 0
B1040(0) 0
B1041(0) 0
B1042(0) 0
B1043(0) 0
B1044(0) 0
B1045(0) 0
B1046(2) 0
B1047(0) 0
B1048(0) 0
B1049(0) 0
B1050(2) 0
B1051(2) 0
B1052(0) 0
B1053(2) 1
B1054(2) 0
B1055(2) 0
B1056(0) 0
B1057(0) 0
B1058(0) 0
B1059(4) 0
B1060(0) 0
B1061(2) 0
B1062(2) 0
B1063(2) 0
B1064(0) 0
B1065(0) 0
B1066(0) 0
B1067(4) 0
B1068(0) 0
B1069(0) 0
B1070(2) 0
B1071(2) 0
B1072(0) 0
B1073(0) 0
B1074(0) 0
B1075(0) 0
B1076(0) 0
B1077(0) 0
B1078(0) 0
B1079(0) 0
B1080(0) 0
B1081(0) 0
B1082(0) 0
B1083(0) 0
B1084(0) 0
B1085(0) 0
B1086(0) 0
B1087(0) 0
B1088(0) 0
B1089(0) 0
B1090(0) 0
B1091(0) 0
B1092(0) 0
B1093(0) 0
B1094(0) 0
B1095(0) 0
B1096(4) 0
B1097(2) 0
B1098(0) 0
B1099(0) 0
B1100(4) 0
B1101(0) 0
B1102(0) 0
B1103(0) 0
B1104(4) 0
B1105(4) 0
B1106(0) 0
B1107(0) 0
B1108(4) 0
B1109(0) 0
B1110(0) 0
B1111(0) 0
B1112(4) 0
B1113(4) 0
B1114(0) 0
B1115(0) 0
B1116(4) 0
B1117(2) 0
B1118(0) 0
B1119(0) 0
B1120(0) 0
B1121(0) 0
B1122(0) 0
B1123(0) 0
B1124(0) 0
B1125(0) 0
B1126(0) 0
B1127(0) 0
B1128(0) 0
B1129(0) 0
B1130(0) 0
B1131(0) 0
B1132(0) 0
B1133(0) 0
B1134(0) 0
B1135(0) 0
B1136(0) 0
B1137(0) 0
B1138(0) 0
B1139(0) 0
B1140(0) 0
B1141(0) 0
B1142(0) 0
B1143(0) 0
B1144(2) 0
B1145(4) 0
B1146(2) 0
B1147(2) 0
B1148(4) 0
B1149(2) 0
B1150(2) 0
B1151(0) 0
B1152(2) 1
B1153(4) 0
B1154(2) 0
B1155(0) 0
B1156(4) 0
B1157(2) 0
B1158(2) 0
B1159(0) 0
B1160(2) 0
B1161(4) 0
B1162(2) 0
B1163(0) 0
B1164(2) 0
B1165(4) 0
B1166(2) 0
B1167(2) 0
B1168(0) 0
B1169(0) 0
B1170(0) 0
B1171(0) 0
B1172(0) 0
B1173(0) 0
B1174(0) 0
B1175(0) 0
B1176(0) 0
B1177(0) 0
B1178(0) 0
B1179(0) 0
B1180(0) 0
B1181(0) 0
B1182(0) 0
B1183(0) 0
B1184(0) 0
B1185(0) 0
B1186(0) 0
B1187(0) 0
B1188(0) 0
B1189(0) 0
B1190(0) 0
B1191(0) 0
B1192(0) 0
B1193(2) 0
B1194(6) 0
B1195(2) 0
B1196(0) 0
B1197(4) 0
B1198(6) 1
B1199(2) 0
B1200(0) 0
B1201(0) 0
B1202(4) 0
B1203(2) 0
B1204(0) 0
B1205(4) 0
B1206(6) 0
B1207(2) 0
B1208(0) 0
B1209(0) 0
B1210(4) 0
B1211(2) 0
B1212(0) 0
B1213(2) 0
B1214(6) 0
B1215(2) 0
B1216(0) 0
B1217(0) 0
B1218(0) 0
B1219(0) 0
B1220(0) 0
B1221(0) 0
B1222(0) 0
B1223(0) 0
B1224(0) 0
B1225(0) 0
B1226(0) 0
B1227(0) 0
B1228(0) 0
B1229(0) 0
B1230(0) 0
B1231(0) 0
B1232(0) 0
B1233(0) 0
B1234(0) 0
B1235(0) 0
B1236(0) 0
B1237(0) 0
B1238(0) 0
B1239(0) 0
B1240(0) 0
B1241(0) 0
B1242(2) 0
B1243(0) 0
B1244(2) 0
B1245(0) 0
B1246(2) 0
B1247(2) 0
B1248(0) 0
B1249(2) 0
B1250(2) 0
B1251(0) 0
B1252(2) 0
B1253(0) 0
B1254(2) 0
B1255(2) 0
B1256(0) 0
B1257(2) 0
B1258(2) 0
B1259(0) 0
B1260(0) 0
B1261(0) 0
B1262(2) 0
B1263(0) 0
B1264(0) 0
B1265(0) 0
B1266(0) 0
B1267(0) 0
B1268(0) 0
B1269(0) 0
B1270(0) 0
B1271(0) 0
B1272(0) 0
B1273(0) 0
B1274(0) 0
B1275(0) 0
B1276(0) 0
B1277(0) 0
B1278(0) 0
B1279(0) 0
B1280(0) 0
B1281(0) 0
B1282(0) 0
B1283(0) 0
B1284(0) 0
B1285(0) 0
B1286(0) 0
B1287(0) 0
B1288(0) 0
B1289(0) 0
B1290(0) 0
B1291(0) 0
B1292(2) 0
B1293(0) 0
B1294(0) 0
B1295(0) 0
B1296(4) 0
B1297(2) 0
B1298(0) 0
B1299(0) 0
B1300(2) 0
B1301(0) 0
B1302(0) 0
B1303(0) 0
B1304(4) 0
B1305(2) 0
B1306(0) 0
B1307(0) 0
B1308(4) 0
B1309(2) 0
B1310(0) 0
B1311(0) 0
B1312(0) 0
B1313(0) 0
B1314(0) 0
B1315(0) 0
B1316(0) 0
B1317(0) 0
B1318(0) 0
B1319(0) 0
B1320(0) 0
B1321(0) 0
B1322(0) 0
B1323(0) 0
B1324(0) 0
B1325(0) 0
B1326(0) 0
B1327(0) 0
B1328(0) 0
B1329(0) 0
B1330(0) 0
B1331(0) 0
B1332(0) 0
B1333(0) 0
B1334(0) 0
B1335(0) 0
B1336(0) 0
B1337(0) 0
B1338(0) 0
B1339(0) 0
B1340(2) 0
B1341(2) 0
B1342(2) 0
B1343(0) 0
B1344(2) 0
B1345(2) 0
B1346(2) 0
B1347(0) 0
B1348(2) 0
B1349(2) 0
B1350(2) 0
B1351(0) 0
B1352(2) 0
B1353(2) 0
B1354(2) 0
B1355(0) 0
B1356(2) 1
B1357(4) 0
B1358(2) 0
B1359(2) 0
B1360(0) 0
B1361(0) 0
B1362(0) 0
B1363(0) 0
B1364(0) 0
B1365(0) 0
B1366(0) 0
B1367(0) 0
B1368(0) 0
B1369(0) 0
B1370(0) 0
B1371(0) 0
B1372(0) 0
B1373(0) 0
B1374(0) 0
B1375(0) 0
B1376(0) 0
B1377(0) 0
B1378(0) 0
B1379(0) 0
B1380(0) 0
B1381(0) 0
B1382(0) 0
B1383(0) 0
B1384(0) 0
B1385(0) 0
B1386(0) 0
B1387(0) 0
B1388(0) 0
B1389(4) 1
B1390(6) 1
B1391(2) 0
B1392(0) 0
B1393(0) 0
B1394(4) 0
B1395(2) 0
B1396(0) 0
B1397(4) 0
B1398(6) 0
B1399(2) 0
B1400(0) 0
B1401(0) 0
B1402(4) 1
B1403(2) 0
B1404(0) 0
B1405(2) 0
B1406(6) 0
B1407(2) 0
B1408(0) 0
B1409(0) 0
B1410(0) 0
B1411(0) 0
B1412(0) 0
B1413(0) 0
B1414(0) 0
B1415(0) 0
B1416(0) 0
B1417(0) 0
B1418(0) 0
B1419(0) 0
B1420(0) 0
B1421(0) 0
B1422(0) 0
B1423(0) 0
B1424(0) 0
B1425(0) 0
B1426(0) 0
B1427(0) 0
B1428(0) 0
B1429(0) 0
B1430(0) 0
B1431(0) 0
B1432(0) 0
B1433(0) 0
B1434(0) 0
B1435(0) 0
B1436(0) 0
B1437(2) 1
B1438(2) 0
B1439(2) 0
B1440(0) 0
B1441(0) 0
B1442(2) 0
B1443(2) 0
B1444(0) 0
B1445(2) 0
B1446(2) 0
B1447(2) 0
B1448(0) 0
B1449(0) 0
B1450(2) 1
B1451(2) 0
B1452(0) 0
B1453(2) 0
B1454(2) 0
B1455(4) 0
B1456(0) 0
B1457(0) 0
B1458(0) 0
B1459(0) 0
B1460(0) 0
B1461(0) 0
B1462(0) 0
B1463(0) 0
B1464(0) 0
B1465(0) 0
B1466(0) 0
B1467(0) 0
B1468(0) 0
B1469(0) 0
B1470(0) 0
B1471(0) 0
B1472(0) 0
B1473(0) 0
B1474(0) 0
B1475(0) 0
B1476(0) 0
B1477(0) 0
B1478(0) 0
B1479(0) 0
B1480(0) 0
B1481(0) 0
B1482(0) 0
B1483(0) 0
B1484(0) 0
B1485(0) 0
B1486(0) 0
B1487(0) 0
B1488(2) 0
B1489(4) 0
B1490(0) 0
B1491(0) 0
B1492(4) 0
B1493(0) 0
B1494(0) 0
B1495(0) 0
B1496(2) 0
B1497(4) 0
B1498(0) 0
B1499(0) 0
B1500(2) 0
B1501(2) 0
B1502(0) 0
B1503(0) 0
B1504(0) 0
B1505(0) 0
B1506(0) 0
B1507(0) 0
B1508(0) 0
B1509(0) 0
B1510(0) 0
B1511(0) 0
B1512(0) 0
B1513(0) 0
B1514(0) 0
B1515(0) 0
B1516(0) 0
B1517(0) 0
B1518(0) 0
B1519(0) 0
B1520(0) 0
B1521(0) 0
B1522(0) 0
B1523(0) 0
B1524(0) 0
B1525(0) 0
B1526(0) 0
B1527(0) 0
B1528(0) 0
B1529(0) 0
B1530(0) 0
B1531(0) 0
B1532(0) 0
B1533(0) 0
B1534(0) 0
B1535(0) 0
B1536(0) 0
B1537(0) 0
B1538(2) 0
B1539(2) 0
B1540(0) 0
B1541(4) 0
B1542(4) 0
B1543(0) 0
B1544(0) 0
B1545(0) 0
B1546(2) 0
B1547(2) 0
B1548(0) 0
B1549(2) 0
B1550(4) 0
B1551(2) 0
B1552(0) 0
B1553(0) 0
B1554(0) 0
B1555(0) 0
B1556(0) 0
B1557(0) 0
B1558(0) 0
B1559(0) 0
B1560(0) 0
B1561(0) 0
B1562(0) 0
B1563(0) 0
B1564(0) 0
B1565(0) 0
B1566(0) 0
B1567(0) 0
B1568(0) 0
B1569(0) 0
B1570(0) 0
B1571(0) 0
B1572(0) 0
B1573(0) 0
B1574(0) 0
B1575(0) 0
B1576(0) 0
B1577(0) 0
B1578(0) 0
B1579(0) 0
B1580(0) 0
B1581(0) 0
B1582(0) 0
B1583(0) 0
B1584(0) 0
B1585(0) 0
B1586(4) 0
B1587(2) 0
B1588(0) 0
B1589(4) 0
B1590(6) 1
B1591(2) 0
B1592(0) 0
B1593(0) 0
B1594(4) 0
B1595(2) 0
B1596(0) 0
B1597(2) 0
B1598(6) 0
B1599(2) 0
B1600(0) 0
B1601(0) 0
B1602(0) 0
B1603(0) 0
B1604(0) 0
B1605(0) 0
B1606(0) 0
B1607(0) 0
B1608(0) 0
B1609(0) 0
B1610(0) 0
B1611(0) 0
B1612(0) 0
B1613(0) 0
B1614(0) 0
B1615(0) 0
B1616(0) 0
B1617(0) 0
B1618(0) 0
B1619(0) 0
B1620(0) 0
B1621(0) 0
B1622(0) 0
B1623(0) 0
B1624(0) 0
B1625(0) 0
B1626(0) 0
B1627(0) 0
B1628(0) 0
B1629(0) 0
B1630(0) 0
B1631(0) 0
B1632(0) 0
B1633(0) 0
B1634(2) 0
B1635(2) 0
B1636(0) 0
B1637(0) 0
B1638(2) 0
B1639(4) 0
B1640(0) 0
B1641(0) 0
B1642(2) 1
B1643(2) 0
B1644(0) 0
B1645(0) 0
B1646(2) 0
B1647(2) 0
B1648(0) 0
B1649(0) 0
B1650(0) 0
B1651(0) 0
B1652(0) 0
B1653(0) 0
B1654(0) 0
B1655(0) 0
B1656(0) 0
B1657(0) 0
B1658(0) 0
B1659(0) 0
B1660(0) 0
B1661(0) 0
B1662(0) 0
B1663(0) 0
B1664(0) 0
B1665(0) 0
B1666(0) 0
B1667(0) 0
B1668(0) 0
B1669(0) 0
B1670(0) 0
B1671(0) 0
B1672(0) 0
B1673(0) 0
B1674(0) 0
B1675(0) 0
B1676(0) 0
B1677(0) 0
B1678(0) 0
B1679(0) 0
B1680(0) 0
B1681(0) 0
B1682(0) 0
B1683(0) 0
B1684(2) 0
B1685(0) 0
B1686(0) 0
B1687(0) 0
B1688(4) 1
B1689(2) 0
B1690(0) 0
B1691(0) 0
B1692(4) 0
B1693(2) 0
B1694(0) 0
B1695(0) 0
B1696(0) 0
B1697(0) 0
B1698(0) 0
B1699(0) 0
B1700(0) 0
B1701(0) 0
B1702(0) 0
B1703(0) 0
B1704(0) 0
B1705(0) 0
B1706(0) 0
B1707(0) 0
B1708(0) 0
B1709(0) 0
B1710(0) 0
B1711(0) 0
B1712(0) 0
B1713(0) 0
B1714(0) 0
B1715(0) 0
B1716(0) 0
B1717(0) 0
B1718(0) 0
B1719(0) 0
B1720(0) 0
B1721(0) 0
B1722(0) 0
B1723(0) 0
B1724(0) 0
B1725(0) 0
B1726(0) 0
B1727(0) 0
B1728(0) 0
B1729(0) 0
B1730(0) 0
B1731(0) 0
B1732(4) 1
B1733(0) 0
B1734(0) 0
B1735(0) 0
B1736(2) 0
B1737(4) 1
B1738(0) 0
B1739(0) 0
B1740(2) 0
B1741(2) 0
B1742(0) 0
B1743(0) 0
B1744(0) 0
B1745(0) 0
B1746(0) 0
B1747(0) 0
B1748(0) 0
B1749(0) 0
B1750(0) 0
B1751(0) 0
B1752(0) 0
B1753(0) 0
B1754(0) 0
B1755(0) 0
B1756(0) 0
B1757(0) 0
B1758(0) 0
B1759(0) 0
B1760(0) 0
B1761(0) 0
B1762(0) 0
B1763(0) 0
B1764(0) 0
B1765(0) 0
B1766(0) 0
B1767(0) 0
B1768(0) 0
B1769(0) 0
B1770(0) 0
B1771(0) 0
B1772(0) 0
B1773(0) 0
B1774(0) 0
B1775(0) 0
B1776(0) 0
B1777(0) 0
B1778(0) 0
B1779(0) 0
B1780(0) 0
B1781(2) 0
B1782(4) 0
B1783(2) 0
B1784(0) 0
B1785(0) 0
B1786(4) 1
B1787(0) 0
B1788(0) 0
B1789(2) 0
B1790(4) 0
B1791(2) 0
B1792(0) 0
B1793(0) 0
B1794(0) 0
B1795(0) 0
B1796(0) 0
B1797(0) 0
B1798(0) 0
B1799(0) 0
B1800(0) 0
B1801(0) 0
B1802(0) 0
B1803(0) 0
B1804(0) 0
B1805(0) 0
B1806(0) 0
B1807(0) 0
B1808(0) 0
B1809(0) 0
B1810(0) 0
B1811(0) 0
B1812(0) 0
B1813(0) 0
B1814(0) 0
B1815(0) 0
B1816(0) 0
B1817(0) 0
B1818(0) 0
B1819(0) 0
B1820(0) 0
B1821(0) 0
B1822(0) 0
B1823(0) 0
B1824(0) 0
B1825(0) 0
B1826(0) 0
B1827(0) 0
B1828(0) 0
B1829(2) 0
B1830(2) 0
B1831(2) 0
B1832(0) 0
B1833(0) 0
B1834(0) 0
B1835(4) 1
B1836(0) 0
B1837(0) 0
B1838(2) 0
B1839(2) 0
B1840(0) 0
B1841(0) 0
B1842(0) 0
B1843(0) 0
B1844(0) 0
B1845(0) 0
B1846(0) 0
B1847(0) 0
B1848(0) 0
B1849(0) 0
B1850(0) 0
B1851(0) 0
B1852(0) 0
B1853(0) 0
B1854(0) 0
B1855(0) 0
B1856(0) 0
B1857(0) 0
B1858(0) 0
B1859(0) 0
B1860(0) 0
B1861(0) 0
B1862(0) 0
B1863(0) 0
B1864(0) 0
B1865(0) 0
B1866(0) 0
B1867(0) 0
B1868(0) 0
B1869(0) 0
B1870(0) 0
B1871(0) 0
B1872(0) 0
B1873(0) 0
B1874(0) 0
B1875(0) 0
B1876(0) 0
B1877(0) 0
B1878(0) 0
B1879(0) 0
B1880(2) 0
B1881(4) 0
B1882(0) 0
B1883(0) 0
B1884(2) 0
B1885(2) 0
B1886(0) 0
B1887(0) 0
B1888(0) 0
B1889(0) 0
B1890(0) 0
B1891(0) 0
B1892(0) 0
B1893(0) 0
B1894(0) 0
B1895(0) 0
B1896(0) 0
B1897(0) 0
B1898(0) 0
B1899(0) 0
B1900(0) 0
B1901(0) 0
B1902(0) 0
B1903(0) 0
B1904(0) 0
B1905(0) 0
B1906(0) 0
B1907(0) 0
B1908(0) 0
B1909(0) 0
B1910(0) 0
B1911(0) 0
B1912(0) 0
B1913(0) 0
B1914(0) 0
B1915(0) 0
B1916(0) 0
B1917(0) 0
B1918(0) 0
B1919(0) 0
B1920(0) 0
B1921(0) 0
B1922(0) 0
B1923(0) 0
B1924(0) 0
B1925(0) 0
B1926(0) 0
B1927(0) 0
B1928(0) 0
B1929(0) 0
B1930(2) 0
B1931(2) 0
B1932(0) 0
B1933(2) 1
B1934(4) 0
B1935(2) 1
B1936(0) 0
B1937(0) 0
B1938(0) 0
B1939(0) 0
B1940(0) 0
B1941(0) 0
B1942(0) 0
B1943(0) 0
B1944(0) 0
B1945(0) 0
B1946(0) 0
B1947(0) 0
B1948(0) 0
B1949(0) 0
B1950(0) 0
B1951(0) 0
B1952(0) 0
B1953(0) 0
B1954(0) 0
B1955(0) 0
B1956(0) 0
B1957(0) 0
B1958(0) 0
B1959(0) 0
B1960(0) 0
B1961(0) 0
B1962(0) 0
B1963(0) 0
B1964(0) 0
B1965(0) 0
B1966(0) 0
B1967(0) 0
B1968(0) 0
B1969(0) 0
B1970(0) 0
B1971(0) 0
B1972(0) 0
B1973(0) 0
B1974(0) 0
B1975(0) 0
B1976(0) 0
B1977(0) 0
B1978(4) 1
B1979(2) 0
B1980(0) 0
B1981(2) 0
B1982(6) 0
B1983(2) 0
B1984(0) 0
B1985(0) 0
B1986(0) 0
B1987(0) 0
B1988(0) 0
B1989(0) 0
B1990(0) 0
B1991(0) 0
B1992(0) 0
B1993(0) 0
B1994(0) 0
B1995(0) 0
B1996(0) 0
B1997(0) 0
B1998(0) 0
B1999(0) 0
B2000(0) 0
B2001(0) 0
B2002(0) 0
B2003(0) 0
B2004(0) 0
B2005(0) 0
B2006(0) 0
B2007(0) 0
B2008(0) 0
B2009(0) 0
B2010(0) 0
B2011(0) 0
B2012(0) 0
B2013(0) 0
B2014(0) 0
B2015(0) 0
B2016(0) 0
B2017(0) 0
B2018(0) 0
B2019(0) 0
B2020(0) 0
B2021(0) 0
B2022(0) 0
B2023(0) 0
B2024(0) 0
B2025(0) 0
B2026(2) 1
B2027(2) 0
B2028(0) 0
B2029(0) 0
B2030(2) 0
B2031(2) 0
B2032(0) 0
B2033(0) 0
B2034(0) 0
B2035(0) 0
B2036(0) 0
B2037(0) 0
B2038(0) 0
B2039(0) 0
B2040(0) 0
B2041(0) 0
B2042(0) 0
B2043(0) 0
B2044(0) 0
B2045(0) 0
B2046(0) 0
B2047(0) 0
B2048(0) 0
B2049(0) 0
B2050(0) 0
B2051(0) 0
B2052(0) 0
B2053(0) 0
B2054(0) 0
B2055(0) 0
B2056(0) 0
B2057(0) 0
B2058(0) 0
B2059(0) 0
B2060(0) 0
B2061(0) 0
B2062(0) 0
B2063(0) 0
B2064(0) 0
B2065(0) 0
B2066(0) 0
B2067(0) 0
B2068(0) 0
B2069(0) 0
B2070(0) 0
B2071(0) 0
B2072(0) 0
B2073(0) 0
B2074(0) 0
B2075(0) 0
B2076(4) 0
B2077(2) 0
B2078(0) 0
B2079(0) 0
B2080(0) 0
B2081(0) 0
B2082(0) 0
B2083(0) 0
B2084(0) 0
B2085(0) 0
B2086(0) 0
B2087(0) 0
B2088(0) 0
B2089(0) 0
B2090(0) 0
B2091(0) 0
B2092(0) 0
B2093(0) 0
B2094(0) 0
B2095(0) 0
B2096(0) 0
B2097(0) 0
B2098(0) 0
B2099(0) 0
B2100(0) 0
B2101(0) 0
B2102(0) 0
B2103(0) 0
B2104(0) 0
B2105(0) 0
B2106(0) 0
B2107(0) 0
B2108(0) 0
B2109(0) 0
B2110(0) 0
B2111(0) 0
B2112(0) 0
B2113(0) 0
B2114(0) 0
B2115(0) 0
B2116(0) 0
B2117(0) 0
B2118(0) 0
B2119(0) 0
B2120(0) 0
B2121(0) 0
B2122(0) 0
B2123(0) 0
B2124(2) 0
B2125(2) 0
B2126(0) 0
B2127(0) 0
B2128(0) 0
B2129(0) 0
B2130(0) 0
B2131(0) 0
B2132(0) 0
B2133(0) 0
B2134(0) 0
B2135(0) 0
B2136(0) 0
B2137(0) 0
B2138(0) 0
B2139(0) 0
B2140(0) 0
B2141(0) 0
B2142(0) 0
B2143(0) 0
B2144(0) 0
B2145(0) 0
B2146(0) 0
B2147(0) 0
B2148(0) 0
B2149(0) 0
B2150(0) 0
B2151(0) 0
B2152(0) 0
B2153(0) 0
B2154(0) 0
B2155(0) 0
B2156(0) 0
B2157(0) 0
B2158(0) 0
B2159(0) 0
B2160(0) 0
B2161(0) 0
B2162(0) 0
B2163(0) 0
B2164(0) 0
B2165(0) 0
B2166(0) 0
B2167(0) 0
B2168(0) 0
B2169(0) 0
B2170(0) 0
B2171(0) 0
B2172(0) 0
B2173(2) 0
B2174(4) 0
B2175(2) 0
B2176(0) 0
B2177(0) 0
B2178(0) 0
B2179(0) 0
B2180(0) 0
B2181(0) 0
B2182(0) 0
B2183(0) 0
B2184(0) 0
B2185(0) 0
B2186(0) 0
B2187(0) 0
B2188(0) 0
B2189(0) 0
B2190(0) 0
B2191(0) 0
B2192(0) 0
B2193(0) 0
B2194(0) 0
B2195(0) 0
B2196(0) 0
B2197(0) 0
B2198(0) 0
B2199(0) 0
B2200(0) 0
B2201(0) 0
B2202(0) 0
B2203(0) 0
B2204(0) 0
B2205(0) 0
B2206(0) 0
B2207(0) 0
B2208(0) 0
B2209(0) 0
B2210(0) 0
B2211(0) 0
B2212(0) 0
B2213(0) 0
B2214(0) 0
B2215(0) 0
B2216(0) 0
B2217(0) 0
B2218(0) 0
B2219(0) 0
B2220(0) 0
B2221(0) 0
B2222(2) 0
B2223(2) 0
B2224(0) 0
B2225(0) 0
B2226(0) 0
B2227(0) 0
B2228(0) 0
B2229(0) 0
B2230(0) 0
B2231(0) 0
B2232(0) 0
B2233(0) 0
B2234(0) 0
B2235(0) 0
B2236(0) 0
B2237(0) 0
B2238(0) 0
B2239(0) 0
B2240(0) 0
B2241(0) 0
B2242(0) 0
B2243(0) 0
B2244(0) 0
B2245(0) 0
B2246(0) 0
B2247(0) 0
B2248(0) 0
B2249(0) 0
B2250(0) 0
B2251(0) 0
B2252(0) 0
B2253(0) 0
B2254(0) 0
B2255(0) 0
B2256(0) 0
B2257(0) 0
B2258(0) 0
B2259(0) 0
B2260(0) 0
B2261(0) 0
B2262(0) 0
B2263(0) 0
B2264(0) 0
B2265(0) 0
B2266(0) 0
B2267(0) 0
B2268(0) 0
B2269(0) 0
B2270(0) 0
B2271(0) 0
B2272(0) 0
B2273(0) 0
B2274(0) 0
B2275(0) 0
B2276(0) 0
B2277(0) 0
B2278(0) 0
B2279(0) 0
B2280(0) 0
B2281(0) 0
B2282(0) 0
B2283(0) 0
B2284(0) 0
B2285(0) 0
B2286(0) 0
B2287(0) 0
B2288(0) 0
B2289(0) 0
B2290(0) 0
B2291(0) 0
B2292(0) 0
B2293(0) 0
B2294(0) 0
B2295(0) 0
B2296(0) 0
B2297(0) 0
B2298(0) 0
B2299(0) 0
B2300(0) 0
B2301(0) 0
B2302(0) 0
B2303(0) 0
B2304(0) 0
B2305(0) 0
B2306(0) 0
B2307(0) 0
B2308(0) 0
B2309(0) 0
B2310(0) 0
B2311(0) 0
B2312(0) 0
B2313(0) 0
B2314(0) 0
B2315(0) 0
B2316(0) 0
B2317(0) 0
B2318(0) 0
B2319(0) 0
B2320(0) 0
B2321(0) 0
B2322(0) 0
B2323(0) 0
B2324(0) 0
B2325(0) 0
B2326(0) 0
B2327(0) 0
B2328(0) 0
B2329(0) 0
B2330(0) 0
B2331(0) 0
B2332(0) 0
B2333(0) 0
B2334(0) 0
B2335(0) 0
B2336(0) 0
B2337(0) 0
B2338(0) 0
B2339(0) 0
B2340(0) 0
B2341(0) 0
B2342(0) 0
B2343(0) 0
B2344(0) 0
B2345(0) 0
B2346(0) 0
B2347(0) 0
B2348(0) 0
B2349(0) 0
B2350(0) 0
B2351(0) 0
B2352(0) 0
B2353(0) 0
B2354(0) 0
B2355(0) 0
B2356(0) 0
B2357(0) 0
B2358(0) 0
B2359(0) 0
B2360(0) 0
B2361(0) 0
B2362(0) 0
B2363(0) 0
B2364(0) 0
B2365(0) 0
B2366(0) 0
B2367(0) 0
B2368(0) 0
B2369(0) 0
B2370(0) 0
B2371(0) 0
B2372(0) 0
B2373(0) 0
B2374(0) 0
B2375(0) 0
B2376(0) 0
B2377(0) 0
B2378(0) 0
B2379(0) 0
B2380(0) 0
B2381(0) 0
B2382(0) 0
B2383(0) 0
B2384(0) 0
B2385(0) 0
B2386(0) 0
B2387(0) 0
B2388(0) 0
B2389(0) 0
B2390(0) 0
B2391(0) 0
B2392(0) 0
B2393(0) 0
B2394(0) 0
B2395(0) 0
B2396(0) 0
B2397(0) 0
B2398(0) 0
B2399(0) 0
B2400(0) 0
B2401(0) 0
B2402(0) 0
B2403(0) 0
B2404(0) 0
B2405(0) 0
B2406(0) 0
B2407(0) 0
B2408(0) 0
B2409(0) 0
B2410(0) 0
B2411(0) 0
B2412(0) 0
B2413(0) 0
B2414(0) 0
B2415(0) 0
I2416(15) 0
I2417(27) 0
I2418(41) 8
I2419(32) 0
I2420(30) 0
I2421(36) 108
I2422(32) 277
I2423(52) 0
I2424(36) 0
I2425(34) 0
I2426(26) 438
I2427(15) 150
I2428(39) 0
I2429(40) 0
I2430(30) 429
I2431(48) 0
I2432(38) 0
I2433(38) 495
I2434(48) 710
I2435(26) 0
I2436(14) 0
I2437(28) 177
I2438(38) 248
I2439(42) 0
I2440(30) 0
I2441(31) 0
I2442(51) 414
I2443(37) 0
I2444(36) 0
I2445(26) 593
I2446(14) 377
I2447(28) 0
I2448(41) 0
I2449(47) 525
I2450(32) 981
I2451(36) 0
I2452(48) 0
I2453(36) 1126
I2454(26) 0
I2455(40) 0
I2456(14) 0
I2457(38) 0
I2458(32) 0
I2459(48) 128
I2460(49) 0
I2461(37) 175
I2462(29) 0
I2463(26) 260
I2464(36) 0
I2465(30) 11
I2466(40) 0
I2467(28) 0
I2468(30) 0
I2469(42) 156
I2470(50) 0
I2471(49) 279
I2472(39) 0
I2473(37) 0
I2474(28) 0
I2475(36) 406
I2476(39) 299
I2477(29) 0
I2478(41) 459
I2479(47) 0
I2480(47) 0
I2481(39) 698
I2482(39) 0
I2483(26) 0
I2484(46) 863
I2485(30) 12
I2486(40) 0
I2487(37) 281
I2488(49) 0
I2489(50) 0
I2490(38) 521
I2491(38) 0
I2492(36) 729
I2493(26) 0
I2494(29) 518
I2495(39) 0
I2496(40) 0
I2497(32) 685
I2498(49) 0
I2499(37) 905
I2500(37) 0
I2501(25) 955
I2502(30) 0
I2503(40) 601
I2504(37) 883
I2505(49) 0
I2506(50) 1107
I2507(38) 0
I2508(38) 0
I2509(36) 1252
I2510(26) 0
I2511(29) 263
I2512(39) 0
I2513(40) 0
I2514(32) 440
I2515(49) 0
I2516(37) 660
I2517(37) 0
I2518(25) 773
I2519(39) 0
I2520(29) 684
I2521(41) 1041
I2522(47) 0
I2523(47) 1274
I2524(39) 0
I2525(39) 0
I2526(26) 1419
I2527(46) 0
I2528(1) 10256
B2529(2) 0
B2530(2) 0
B2531(2) 0
B2532(2) 0
B2533(2) 0
B2534(2) 1
B2535(2) 1
B2536(2) 0
B2537(2) 0
B2538(4) 0
B2539(4) 1
B2540(2) 1
B2541(2) 0
B2542(2) 0
B2543(2) 1
B2544(2) 0
B2545(2) 0
B2546(2) 1
B2547(4) 1
B2548(4) 0
B2549(2) 0
B2550(2) 1
B2551(2) 1
B2552(2) 0
B2553(2) 0
B2554(2) 0
B2555(2) 1
B2556(2) 0
B2557(4) 0
B2558(4) 1
B2559(2) 1
B2560(2) 0
B2561(2) 0
B2562(2) 1
B2563(2) 1
B2564(2) 0
B2565(4) 0
B2566(4) 1
B2567(2) 0
B2568(2) 0
B2569(2) 1
B2570(2) 0
B2571(2) 0
B2572(2) 1
B2573(2) 0
B2574(2) 1
B2575(2) 0
B2576(4) 1
B2577(4) 0
B2578(2) 1
B2579(2) 0
B2580(2) 0
B2581(2) 0
B2582(2) 1
B2583(2) 0
B2584(2) 1
B2585(2) 0
B2586(2) 0
B2587(4) 0
B2588(4) 1
B2589(2) 1
B2590(2) 0
B2591(2) 1
B2592(2) 0
B2593(2) 0
B2594(2) 1
B2595(2) 0
B2596(4) 0
B2597(4) 1
B2598(2) 1
B2599(2) 0
B2600(2) 1
B2601(2) 0
B2602(2) 0
B2603(2) 1
B2604(2) 0
B2605(4) 1
B2606(4) 0
B2607(2) 1
B2608(2) 0
B2609(2) 0
B2610(2) 1
B2611(2) 0
B2612(2) 1
B2613(4) 0
B2614(4) 1
B2615(2) 0
B2616(2) 1
B2617(2) 1
B2618(2) 0
B2619(2) 1
B2620(2) 0
B2621(2) 0
B2622(4) 1
B2623(4) 0
B2624(2) 1
B2625(2) 0
B2626(2) 0
B2627(2) 1
B2628(2) 0
B2629(2) 1
B2630(4) 0
B2631(4) 1
B2632(2) 0
B2633(2) 1
B2634(2) 1
B2635(2) 0
B2636(2) 1
B2637(2) 0
B2638(2) 0
B2639(4) 1
B2640(4) 0
